SCIP version 5.0.0 [precision: 8 byte] [memory: block] [mode: optimized] [LP solver: NONE] [GitHash: 3bbd232]
Copyright (C) 2002-2017 Konrad-Zuse-Zentrum fuer Informationstechnik Berlin (ZIB)

External codes: 
  Readline 6.3         GNU library for command line editing (gnu.org/s/readline)
  CppAD 20160000.1     Algorithmic Differentiation of C++ algorithms developed by B. Bell (www.coin-or.org/CppAD)
  ZLIB 1.2.8           General purpose compression library by J. Gailly and M. Adler (zlib.net)
  GMP 6.1.0            GNU Multiple Precision Arithmetic Library developed by T. Granlund (gmplib.org)

user parameter file <scip.set> not found - using default parameters

read problem <../../data/statH.logreg>
============

File name	:	../../data/statH.logreg
Problem name 	:	statH
Number of data	:	270
Number of var	:	25
The given data has linear dependence
7 sets of column vector are linearly dependent:
{ 3 4}, { 5 6 7 8}, { 11 12}, { 13 14 15}, { 17 18}, { 20 21 22}, { 24 25 26}, 

[dim=1] time: 0.035469
[dim=2] time: 0.069762
[dim=3] time: 0.095967
[dim=4] time: 0.118552
[dim=5] time: 0.140085
[dim=6] time: 0.159468
[dim=7] time: 0.175933
[dim=8] time: 0.190748
[dim=9] time: 0.20406
[dim=10] time: 0.21518
[dim=11] time: 0.224635
[dim=12] time: 0.233609
[dim=13] time: 0.242123
[dim=14] Time of forward = 0.250313sec.
AIC: 197.861
k: 13

[dim=18] time: 0.018326
[dim=17] time: 0.030362
[dim=16] time: 0.044061
[dim=15] time: 0.055624
[dim=14] time: 0.065558
[dim=13] time: 0.073641
[dim=12] Time of backward = 0.084785sec.
AIC: 198.826
k: 13
